(set-option :print-success false)
(set-option :produce-models true)
(set-logic QF_UFNRA)
(define-sort Dt () Real)
( define-fun t0 ( ) Real 0 )
( define-fun y0 ( ) Real 60 )
( define-fun tau0 ( ) Real 0 )
( define-fun on0 ( ) Bool true )
( define-fun pump0 ( ) Bool true )
( define-fun ymin ( ) Real 30 )
( define-fun ymax ( ) Real 80 )
( define-fun inflow ( ) Real 40 )
( define-fun outflow ( ) Real 20 )
( define-fun delta ( ) Real 1.0 )
( define-fun T ( ) Real 0.35 )
( assert ( > inflow outflow ) )
( declare-fun t_0 ( ) Real )
( declare-fun t_1 ( ) Real )
( declare-fun t_2 ( ) Real )
( declare-fun t_3 ( ) Real )
( declare-fun t_4 ( ) Real )
( declare-fun t_5 ( ) Real )
( declare-fun t_6 ( ) Real )
( declare-fun t_7 ( ) Real )
( declare-fun t_8 ( ) Real )
( declare-fun t_9 ( ) Real )
( declare-fun t_10 ( ) Real )
( declare-fun t_11 ( ) Real )
( declare-fun t_12 ( ) Real )
( declare-fun t_13 ( ) Real )
( declare-fun t_14 ( ) Real )
( declare-fun t_15 ( ) Real )
( declare-fun t_16 ( ) Real )
( declare-fun t_17 ( ) Real )
( declare-fun t_18 ( ) Real )
( declare-fun t_19 ( ) Real )
( declare-fun y_0 ( ) Real )
( declare-fun y_1 ( ) Real )
( declare-fun y_2 ( ) Real )
( declare-fun y_3 ( ) Real )
( declare-fun y_4 ( ) Real )
( declare-fun y_5 ( ) Real )
( declare-fun y_6 ( ) Real )
( declare-fun y_7 ( ) Real )
( declare-fun y_8 ( ) Real )
( declare-fun y_9 ( ) Real )
( declare-fun y_10 ( ) Real )
( declare-fun y_11 ( ) Real )
( declare-fun y_12 ( ) Real )
( declare-fun y_13 ( ) Real )
( declare-fun y_14 ( ) Real )
( declare-fun y_15 ( ) Real )
( declare-fun y_16 ( ) Real )
( declare-fun y_17 ( ) Real )
( declare-fun y_18 ( ) Real )
( declare-fun y_19 ( ) Real )
( declare-fun tau_0_1 ( ) Real )
( declare-fun tau_1_1 ( ) Real )
( declare-fun tau_2_1 ( ) Real )
( declare-fun tau_3_1 ( ) Real )
( declare-fun tau_4_1 ( ) Real )
( declare-fun tau_5_1 ( ) Real )
( declare-fun tau_6_1 ( ) Real )
( declare-fun tau_7_1 ( ) Real )
( declare-fun tau_8_1 ( ) Real )
( declare-fun tau_9_1 ( ) Real )
( declare-fun tau_10_1 ( ) Real )
( declare-fun tau_11_1 ( ) Real )
( declare-fun tau_12_1 ( ) Real )
( declare-fun tau_13_1 ( ) Real )
( declare-fun tau_14_1 ( ) Real )
( declare-fun tau_15_1 ( ) Real )
( declare-fun tau_16_1 ( ) Real )
( declare-fun tau_17_1 ( ) Real )
( declare-fun tau_18_1 ( ) Real )
( declare-fun tau_19_1 ( ) Real )
( declare-fun tau_0_2 ( ) Real )
( declare-fun tau_1_2 ( ) Real )
( declare-fun tau_2_2 ( ) Real )
( declare-fun tau_3_2 ( ) Real )
( declare-fun tau_4_2 ( ) Real )
( declare-fun tau_5_2 ( ) Real )
( declare-fun tau_6_2 ( ) Real )
( declare-fun tau_7_2 ( ) Real )
( declare-fun tau_8_2 ( ) Real )
( declare-fun tau_9_2 ( ) Real )
( declare-fun tau_10_2 ( ) Real )
( declare-fun tau_11_2 ( ) Real )
( declare-fun tau_12_2 ( ) Real )
( declare-fun tau_13_2 ( ) Real )
( declare-fun tau_14_2 ( ) Real )
( declare-fun tau_15_2 ( ) Real )
( declare-fun tau_16_2 ( ) Real )
( declare-fun tau_17_2 ( ) Real )
( declare-fun tau_18_2 ( ) Real )
( declare-fun tau_19_2 ( ) Real )
( declare-fun on_0 ( ) Bool )
( declare-fun on_1 ( ) Bool )
( declare-fun on_2 ( ) Bool )
( declare-fun on_3 ( ) Bool )
( declare-fun on_4 ( ) Bool )
( declare-fun on_5 ( ) Bool )
( declare-fun on_6 ( ) Bool )
( declare-fun on_7 ( ) Bool )
( declare-fun on_8 ( ) Bool )
( declare-fun on_9 ( ) Bool )
( declare-fun on_10 ( ) Bool )
( declare-fun on_11 ( ) Bool )
( declare-fun on_12 ( ) Bool )
( declare-fun on_13 ( ) Bool )
( declare-fun on_14 ( ) Bool )
( declare-fun on_15 ( ) Bool )
( declare-fun on_16 ( ) Bool )
( declare-fun on_17 ( ) Bool )
( declare-fun on_18 ( ) Bool )
( declare-fun on_19 ( ) Bool )
( declare-fun pump_0 ( ) Bool )
( declare-fun pump_1 ( ) Bool )
( declare-fun pump_2 ( ) Bool )
( declare-fun pump_3 ( ) Bool )
( declare-fun pump_4 ( ) Bool )
( declare-fun pump_5 ( ) Bool )
( declare-fun pump_6 ( ) Bool )
( declare-fun pump_7 ( ) Bool )
( declare-fun pump_8 ( ) Bool )
( declare-fun pump_9 ( ) Bool )
( declare-fun pump_10 ( ) Bool )
( declare-fun pump_11 ( ) Bool )
( declare-fun pump_12 ( ) Bool )
( declare-fun pump_13 ( ) Bool )
( declare-fun pump_14 ( ) Bool )
( declare-fun pump_15 ( ) Bool )
( declare-fun pump_16 ( ) Bool )
( declare-fun pump_17 ( ) Bool )
( declare-fun pump_18 ( ) Bool )
( declare-fun pump_19 ( ) Bool )
( declare-fun dy_0 ( ) Dt )
( declare-fun dy_1 ( ) Dt )
( declare-fun dy_2 ( ) Dt )
( declare-fun dy_3 ( ) Dt )
( declare-fun dy_4 ( ) Dt )
( declare-fun dy_5 ( ) Dt )
( declare-fun dy_6 ( ) Dt )
( declare-fun dy_7 ( ) Dt )
( declare-fun dy_8 ( ) Dt )
( declare-fun dy_9 ( ) Dt )
( declare-fun dy_10 ( ) Dt )
( declare-fun dy_11 ( ) Dt )
( declare-fun dy_12 ( ) Dt )
( declare-fun dy_13 ( ) Dt )
( declare-fun dy_14 ( ) Dt )
( declare-fun dy_15 ( ) Dt )
( declare-fun dy_16 ( ) Dt )
( declare-fun dy_17 ( ) Dt )
( declare-fun dy_18 ( ) Dt )
( declare-fun dtau_0 ( ) Dt )
( declare-fun dtau_1 ( ) Dt )
( declare-fun dtau_2 ( ) Dt )
( declare-fun dtau_3 ( ) Dt )
( declare-fun dtau_4 ( ) Dt )
( declare-fun dtau_5 ( ) Dt )
( declare-fun dtau_6 ( ) Dt )
( declare-fun dtau_7 ( ) Dt )
( declare-fun dtau_8 ( ) Dt )
( declare-fun dtau_9 ( ) Dt )
( declare-fun dtau_10 ( ) Dt )
( declare-fun dtau_11 ( ) Dt )
( declare-fun dtau_12 ( ) Dt )
( declare-fun dtau_13 ( ) Dt )
( declare-fun dtau_14 ( ) Dt )
( declare-fun dtau_15 ( ) Dt )
( declare-fun dtau_16 ( ) Dt )
( declare-fun dtau_17 ( ) Dt )
( declare-fun dtau_18 ( ) Dt )
( assert ( and ( = t_0 t0 ) ( = y_0 y0 ) ( = tau_0_1 tau_0_2 tau0 ) ( = on_0 on0 ) ( = pump_0 pump0 ) ) )
( assert ( and ( = t_1 ( + t_0 T ) ) ( = t_2 ( + t_1 T ) ) ( = t_3 ( + t_2 T ) ) ( = t_4 ( + t_3 T ) ) ( = t_5 ( + t_4 T ) ) ( = t_6 ( + t_5 T ) ) ( = t_7 ( + t_6 T ) ) ( = t_8 ( + t_7 T ) ) ( = t_9 ( + t_8 T ) ) ( = t_10 ( + t_9 T ) ) ( = t_11 ( + t_10 T ) ) ( = t_12 ( + t_11 T ) ) ( = t_13 ( + t_12 T ) ) ( = t_14 ( + t_13 T ) ) ( = t_15 ( + t_14 T ) ) ( = t_16 ( + t_15 T ) ) ( = t_17 ( + t_16 T ) ) ( = t_18 ( + t_17 T ) ) ( = t_19 ( + t_18 T ) ) ) )
( declare-fun int-ode_y ( Real ) Real )
( define-fun dy_in ( ) Dt 0 )
( define-fun dy_out ( ) Dt 1 )
( declare-fun int-ode_tau ( Real ) Real )
( define-fun dtau_wait ( ) Dt 0 )
( define-fun dtau_pump ( ) Dt 1 )
( assert ( and ( = y_1 ( int-ode_y 0 ) ) ( = y_2 ( int-ode_y 1 ) ) ( = y_3 ( int-ode_y 2 ) ) ( = y_4 ( int-ode_y 3 ) ) ( = y_5 ( int-ode_y 4 ) ) ( = y_6 ( int-ode_y 5 ) ) ( = y_7 ( int-ode_y 6 ) ) ( = y_8 ( int-ode_y 7 ) ) ( = y_9 ( int-ode_y 8 ) ) ( = y_10 ( int-ode_y 9 ) ) ( = y_11 ( int-ode_y 10 ) ) ( = y_12 ( int-ode_y 11 ) ) ( = y_13 ( int-ode_y 12 ) ) ( = y_14 ( int-ode_y 13 ) ) ( = y_15 ( int-ode_y 14 ) ) ( = y_16 ( int-ode_y 15 ) ) ( = y_17 ( int-ode_y 16 ) ) ( = y_18 ( int-ode_y 17 ) ) ( = y_19 ( int-ode_y 18 ) ) ) )
( assert ( and ( = tau_1_1 ( int-ode_tau 0 ) ) ( = tau_2_1 ( int-ode_tau 1 ) ) ( = tau_3_1 ( int-ode_tau 2 ) ) ( = tau_4_1 ( int-ode_tau 3 ) ) ( = tau_5_1 ( int-ode_tau 4 ) ) ( = tau_6_1 ( int-ode_tau 5 ) ) ( = tau_7_1 ( int-ode_tau 6 ) ) ( = tau_8_1 ( int-ode_tau 7 ) ) ( = tau_9_1 ( int-ode_tau 8 ) ) ( = tau_10_1 ( int-ode_tau 9 ) ) ( = tau_11_1 ( int-ode_tau 10 ) ) ( = tau_12_1 ( int-ode_tau 11 ) ) ( = tau_13_1 ( int-ode_tau 12 ) ) ( = tau_14_1 ( int-ode_tau 13 ) ) ( = tau_15_1 ( int-ode_tau 14 ) ) ( = tau_16_1 ( int-ode_tau 15 ) ) ( = tau_17_1 ( int-ode_tau 16 ) ) ( = tau_18_1 ( int-ode_tau 17 ) ) ( = tau_19_1 ( int-ode_tau 18 ) ) ) )
( define-fun connect ( ( dy Dt ) ( dtau Dt ) ( on Bool ) ( pump Bool ) ) Bool ( and ( => ( and on pump ) ( and ( = dy dy_in ) ( = dtau dtau_pump ) ) ) ( => ( and ( not on ) ( not pump ) ) ( and ( = dy dy_in ) ( = dtau dtau_wait ) ) ) ( => ( and ( not on ) pump ) ( and ( = dy dy_out ) ( = dtau dtau_pump ) ) ) ( => ( and on ( not pump ) ) ( and ( = dy dy_out ) ( = dtau dtau_wait ) ) ) ) )
( assert ( and ( connect dy_0 dtau_0 on_0 pump_0 ) ( connect dy_1 dtau_1 on_1 pump_1 ) ( connect dy_2 dtau_2 on_2 pump_2 ) ( connect dy_3 dtau_3 on_3 pump_3 ) ( connect dy_4 dtau_4 on_4 pump_4 ) ( connect dy_5 dtau_5 on_5 pump_5 ) ( connect dy_6 dtau_6 on_6 pump_6 ) ( connect dy_7 dtau_7 on_7 pump_7 ) ( connect dy_8 dtau_8 on_8 pump_8 ) ( connect dy_9 dtau_9 on_9 pump_9 ) ( connect dy_10 dtau_10 on_10 pump_10 ) ( connect dy_11 dtau_11 on_11 pump_11 ) ( connect dy_12 dtau_12 on_12 pump_12 ) ( connect dy_13 dtau_13 on_13 pump_13 ) ( connect dy_14 dtau_14 on_14 pump_14 ) ( connect dy_15 dtau_15 on_15 pump_15 ) ( connect dy_16 dtau_16 on_16 pump_16 ) ( connect dy_17 dtau_17 on_17 pump_17 ) ( connect dy_18 dtau_18 on_18 pump_18 ) ) )
( define-fun jump ( ( on1 Bool ) ( on2 Bool ) ( pump1 Bool ) ( pump2 Bool ) ( y2 Real ) ( tau2_1 Real ) ( tau2_2 Real ) ) Bool ( or ( and on1 pump1 on2 pump2 ( < y2 ymax ) ( = tau2_2 tau2_1 ) ) ( and on1 pump1 ( not on2 ) ( not pump2 ) ( >= y2 ymax ) ( = tau2_2 0 ) ) ( and ( not on1 ) ( not pump1 ) ( not on2 ) ( not pump2 ) ( < tau2_1 delta ) ( = tau2_2 tau2_1 ) ) ( and ( not on1 ) ( not pump1 ) ( not on2 ) pump2 ( >= tau2_1 delta ) ( = tau2_2 tau2_1 ) ) ( and ( not on1 ) pump1 ( not on2 ) pump2 ( > y2 ymin ) ( = tau2_2 tau2_1 ) ) ( and ( not on1 ) pump1 on2 ( not pump2 ) ( <= y2 ymin ) ( = tau2_2 0 ) ) ( and on1 ( not pump1 ) on2 ( not pump2 ) ( < tau2_1 delta ) ( = tau2_2 tau2_1 ) ) ( and on1 ( not pump1 ) on2 pump2 ( >= tau2_1 delta ) ( = tau2_2 tau2_1 ) ) ) )
( assert ( and ( jump on_0 on_1 pump_0 pump_1 y_1 tau_1_1 tau_1_2 ) ( jump on_1 on_2 pump_1 pump_2 y_2 tau_2_1 tau_2_2 ) ( jump on_2 on_3 pump_2 pump_3 y_3 tau_3_1 tau_3_2 ) ( jump on_3 on_4 pump_3 pump_4 y_4 tau_4_1 tau_4_2 ) ( jump on_4 on_5 pump_4 pump_5 y_5 tau_5_1 tau_5_2 ) ( jump on_5 on_6 pump_5 pump_6 y_6 tau_6_1 tau_6_2 ) ( jump on_6 on_7 pump_6 pump_7 y_7 tau_7_1 tau_7_2 ) ( jump on_7 on_8 pump_7 pump_8 y_8 tau_8_1 tau_8_2 ) ( jump on_8 on_9 pump_8 pump_9 y_9 tau_9_1 tau_9_2 ) ( jump on_9 on_10 pump_9 pump_10 y_10 tau_10_1 tau_10_2 ) ( jump on_10 on_11 pump_10 pump_11 y_11 tau_11_1 tau_11_2 ) ( jump on_11 on_12 pump_11 pump_12 y_12 tau_12_1 tau_12_2 ) ( jump on_12 on_13 pump_12 pump_13 y_13 tau_13_1 tau_13_2 ) ( jump on_13 on_14 pump_13 pump_14 y_14 tau_14_1 tau_14_2 ) ( jump on_14 on_15 pump_14 pump_15 y_15 tau_15_1 tau_15_2 ) ( jump on_15 on_16 pump_15 pump_16 y_16 tau_16_1 tau_16_2 ) ( jump on_16 on_17 pump_16 pump_17 y_17 tau_17_1 tau_17_2 ) ( jump on_17 on_18 pump_17 pump_18 y_18 tau_18_1 tau_18_2 ) ( jump on_18 on_19 pump_18 pump_19 y_19 tau_19_1 tau_19_2 ) ) )

(check-sat)
(get-value (dy_0))
(get-value (y_0))
(get-value (t_0))
(get-value (t_1))
(get-value (inflow))
(get-value (outflow))
(get-value (dtau_0))
(get-value (tau_0_2))
(get-value (t_0))
(get-value (t_1))
(assert (=> (and 
(= dy_0 0.0)
(= y_0 60.0)
(= t_0 0.0)
(= t_1 0.35)
) (= (int-ode_y 0) 67.000000)
))
(assert (=> (and 
(= dtau_0 1.0)
(= tau_0_2 0.0)
(= t_0 0.0)
(= t_1 0.35)
) (= (int-ode_tau 0) 0.000000)
))
(push 1)
(assert (= dy_0 0.0))
(assert (= dtau_0 1.0))
(check-sat)
(get-value (dy_1))
(get-value (y_1))
(get-value (t_1))
(get-value (t_2))
(get-value (inflow))
(get-value (outflow))
(get-value (dtau_1))
(get-value (tau_1_2))
(get-value (t_1))
(get-value (t_2))
(assert (=> (and 
(= dy_1 0.0)
(= y_1 67.0)
(= t_1 0.35)
(= t_2 0.7)
) (= (int-ode_y 1) 74.000000)
))
(assert (=> (and 
(= dtau_1 1.0)
(= tau_1_2 0.0)
(= t_1 0.35)
(= t_2 0.7)
) (= (int-ode_tau 1) 0.000000)
))
(push 1)
(assert (= dy_1 0.0))
(assert (= dtau_1 1.0))
(check-sat)
(get-value (dy_2))
(get-value (y_2))
(get-value (t_2))
(get-value (t_3))
(get-value (inflow))
(get-value (outflow))
(get-value (dtau_2))
(get-value (tau_2_2))
(get-value (t_2))
(get-value (t_3))
(assert (=> (and 
(= dy_2 0.0)
(= y_2 74.0)
(= t_2 0.7)
(= t_3 1.05)
) (= (int-ode_y 2) 81.000000)
))
(assert (=> (and 
(= dtau_2 1.0)
(= tau_2_2 0.0)
(= t_2 0.7)
(= t_3 1.05)
) (= (int-ode_tau 2) 0.000000)
))
(push 1)
(assert (= dy_2 0.0))
(assert (= dtau_2 1.0))
(check-sat)
(get-value (dy_3))
(get-value (y_3))
(get-value (t_3))
(get-value (t_4))
(get-value (inflow))
(get-value (outflow))
(get-value (dtau_3))
(get-value (tau_3_2))
(get-value (t_3))
(get-value (t_4))
(assert (=> (and 
(= dy_3 0.0)
(= y_3 81.0)
(= t_3 1.05)
(= t_4 1.4)
) (= (int-ode_y 3) 88.000000)
))
(assert (=> (and 
(= dtau_3 0.0)
(= tau_3_2 0.0)
(= t_3 1.05)
(= t_4 1.4)
) (= (int-ode_tau 3) 0.350000)
))
(push 1)
(assert (= dy_3 0.0))
(assert (= dtau_3 0.0))
(check-sat)
(get-value (dy_4))
(get-value (y_4))
(get-value (t_4))
(get-value (t_5))
(get-value (inflow))
(get-value (outflow))
(get-value (dtau_4))
(get-value (tau_4_2))
(get-value (t_4))
(get-value (t_5))
(assert (=> (and 
(= dy_4 0.0)
(= y_4 88.0)
(= t_4 1.4)
(= t_5 1.75)
) (= (int-ode_y 4) 95.000000)
))
(assert (=> (and 
(= dtau_4 0.0)
(= tau_4_2 0.35)
(= t_4 1.4)
(= t_5 1.75)
) (= (int-ode_tau 4) 0.700000)
))
(push 1)
(assert (= dy_4 0.0))
(assert (= dtau_4 0.0))
(check-sat)
(get-value (dy_5))
(get-value (y_5))
(get-value (t_5))
(get-value (t_6))
(get-value (inflow))
(get-value (outflow))
(get-value (dtau_5))
(get-value (tau_5_2))
(get-value (t_5))
(get-value (t_6))
(assert (=> (and 
(= dy_5 0.0)
(= y_5 95.0)
(= t_5 1.75)
(= t_6 2.1)
) (= (int-ode_y 5) 102.000000)
))
(assert (=> (and 
(= dtau_5 0.0)
(= tau_5_2 0.7)
(= t_5 1.75)
(= t_6 2.1)
) (= (int-ode_tau 5) 1.050000)
))
(push 1)
(assert (= dy_5 0.0))
(assert (= dtau_5 0.0))
(check-sat)
(get-value (dy_6))
(get-value (y_6))
(get-value (t_6))
(get-value (t_7))
(get-value (inflow))
(get-value (outflow))
(get-value (dtau_6))
(get-value (tau_6_2))
(get-value (t_6))
(get-value (t_7))
(assert (=> (and 
(= dy_6 1.0)
(= y_6 102.0)
(= t_6 2.1)
(= t_7 2.45)
) (= (int-ode_y 6) 95.000000)
))
(assert (=> (and 
(= dtau_6 1.0)
(= tau_6_2 1.05)
(= t_6 2.1)
(= t_7 2.45)
) (= (int-ode_tau 6) 1.050000)
))
(push 1)
(assert (= dy_6 1.0))
(assert (= dtau_6 1.0))
(check-sat)
(get-value (dy_7))
(get-value (y_7))
(get-value (t_7))
(get-value (t_8))
(get-value (inflow))
(get-value (outflow))
(get-value (dtau_7))
(get-value (tau_7_2))
(get-value (t_7))
(get-value (t_8))
(assert (=> (and 
(= dy_7 1.0)
(= y_7 95.0)
(= t_7 2.45)
(= t_8 2.8)
) (= (int-ode_y 7) 88.000000)
))
(assert (=> (and 
(= dtau_7 1.0)
(= tau_7_2 1.05)
(= t_7 2.45)
(= t_8 2.8)
) (= (int-ode_tau 7) 1.050000)
))
(push 1)
(assert (= dy_7 1.0))
(assert (= dtau_7 1.0))
(check-sat)
(get-value (dy_8))
(get-value (y_8))
(get-value (t_8))
(get-value (t_9))
(get-value (inflow))
(get-value (outflow))
(get-value (dtau_8))
(get-value (tau_8_2))
(get-value (t_8))
(get-value (t_9))
(assert (=> (and 
(= dy_8 1.0)
(= y_8 88.0)
(= t_8 2.8)
(= t_9 3.15)
) (= (int-ode_y 8) 81.000000)
))
(assert (=> (and 
(= dtau_8 1.0)
(= tau_8_2 1.05)
(= t_8 2.8)
(= t_9 3.15)
) (= (int-ode_tau 8) 1.050000)
))
(push 1)
(assert (= dy_8 1.0))
(assert (= dtau_8 1.0))
(check-sat)
(get-value (dy_9))
(get-value (y_9))
(get-value (t_9))
(get-value (t_10))
(get-value (inflow))
(get-value (outflow))
(get-value (dtau_9))
(get-value (tau_9_2))
(get-value (t_9))
(get-value (t_10))
(assert (=> (and 
(= dy_9 1.0)
(= y_9 81.0)
(= t_9 3.15)
(= t_10 3.5)
) (= (int-ode_y 9) 74.000000)
))
(assert (=> (and 
(= dtau_9 1.0)
(= tau_9_2 1.05)
(= t_9 3.15)
(= t_10 3.5)
) (= (int-ode_tau 9) 1.050000)
))
(push 1)
(assert (= dy_9 1.0))
(assert (= dtau_9 1.0))
(check-sat)
(get-value (dy_10))
(get-value (y_10))
(get-value (t_10))
(get-value (t_11))
(get-value (inflow))
(get-value (outflow))
(get-value (dtau_10))
(get-value (tau_10_2))
(get-value (t_10))
(get-value (t_11))
(assert (=> (and 
(= dy_10 1.0)
(= y_10 74.0)
(= t_10 3.5)
(= t_11 3.85)
) (= (int-ode_y 10) 67.000000)
))
(assert (=> (and 
(= dtau_10 1.0)
(= tau_10_2 1.05)
(= t_10 3.5)
(= t_11 3.85)
) (= (int-ode_tau 10) 1.050000)
))
(push 1)
(assert (= dy_10 1.0))
(assert (= dtau_10 1.0))
(check-sat)
(get-value (dy_11))
(get-value (y_11))
(get-value (t_11))
(get-value (t_12))
(get-value (inflow))
(get-value (outflow))
(get-value (dtau_11))
(get-value (tau_11_2))
(get-value (t_11))
(get-value (t_12))
(assert (=> (and 
(= dy_11 1.0)
(= y_11 67.0)
(= t_11 3.85)
(= t_12 4.2)
) (= (int-ode_y 11) 60.000000)
))
(assert (=> (and 
(= dtau_11 1.0)
(= tau_11_2 1.05)
(= t_11 3.85)
(= t_12 4.2)
) (= (int-ode_tau 11) 1.050000)
))
(push 1)
(assert (= dy_11 1.0))
(assert (= dtau_11 1.0))
(check-sat)
(get-value (dy_12))
(get-value (y_12))
(get-value (t_12))
(get-value (t_13))
(get-value (inflow))
(get-value (outflow))
(get-value (dtau_12))
(get-value (tau_12_2))
(get-value (t_12))
(get-value (t_13))
(assert (=> (and 
(= dy_12 1.0)
(= y_12 60.0)
(= t_12 4.2)
(= t_13 4.55)
) (= (int-ode_y 12) 53.000000)
))
(assert (=> (and 
(= dtau_12 1.0)
(= tau_12_2 1.05)
(= t_12 4.2)
(= t_13 4.55)
) (= (int-ode_tau 12) 1.050000)
))
(push 1)
(assert (= dy_12 1.0))
(assert (= dtau_12 1.0))
(check-sat)
(get-value (dy_13))
(get-value (y_13))
(get-value (t_13))
(get-value (t_14))
(get-value (inflow))
(get-value (outflow))
(get-value (dtau_13))
(get-value (tau_13_2))
(get-value (t_13))
(get-value (t_14))
(assert (=> (and 
(= dy_13 1.0)
(= y_13 53.0)
(= t_13 4.55)
(= t_14 4.9)
) (= (int-ode_y 13) 46.000000)
))
(assert (=> (and 
(= dtau_13 1.0)
(= tau_13_2 1.05)
(= t_13 4.55)
(= t_14 4.9)
) (= (int-ode_tau 13) 1.050000)
))
(push 1)
(assert (= dy_13 1.0))
(assert (= dtau_13 1.0))
(check-sat)
(get-value (dy_14))
(get-value (y_14))
(get-value (t_14))
(get-value (t_15))
(get-value (inflow))
(get-value (outflow))
(get-value (dtau_14))
(get-value (tau_14_2))
(get-value (t_14))
(get-value (t_15))
(assert (=> (and 
(= dy_14 1.0)
(= y_14 46.0)
(= t_14 4.9)
(= t_15 5.25)
) (= (int-ode_y 14) 39.000000)
))
(assert (=> (and 
(= dtau_14 1.0)
(= tau_14_2 1.05)
(= t_14 4.9)
(= t_15 5.25)
) (= (int-ode_tau 14) 1.050000)
))
(push 1)
(assert (= dy_14 1.0))
(assert (= dtau_14 1.0))
(check-sat)
(get-value (dy_15))
(get-value (y_15))
(get-value (t_15))
(get-value (t_16))
(get-value (inflow))
(get-value (outflow))
(get-value (dtau_15))
(get-value (tau_15_2))
(get-value (t_15))
(get-value (t_16))
(assert (=> (and 
(= dy_15 1.0)
(= y_15 39.0)
(= t_15 5.25)
(= t_16 5.6)
) (= (int-ode_y 15) 32.000000)
))
(assert (=> (and 
(= dtau_15 1.0)
(= tau_15_2 1.05)
(= t_15 5.25)
(= t_16 5.6)
) (= (int-ode_tau 15) 1.050000)
))
(push 1)
(assert (= dy_15 1.0))
(assert (= dtau_15 1.0))
(check-sat)
(get-value (dy_16))
(get-value (y_16))
(get-value (t_16))
(get-value (t_17))
(get-value (inflow))
(get-value (outflow))
(get-value (dtau_16))
(get-value (tau_16_2))
(get-value (t_16))
(get-value (t_17))
(assert (=> (and 
(= dy_16 1.0)
(= y_16 32.0)
(= t_16 5.6)
(= t_17 5.95)
) (= (int-ode_y 16) 25.000000)
))
(assert (=> (and 
(= dtau_16 1.0)
(= tau_16_2 1.05)
(= t_16 5.6)
(= t_17 5.95)
) (= (int-ode_tau 16) 1.050000)
))
(push 1)
(assert (= dy_16 1.0))
(assert (= dtau_16 1.0))
(check-sat)
(get-value (dy_17))
(get-value (y_17))
(get-value (t_17))
(get-value (t_18))
(get-value (inflow))
(get-value (outflow))
(get-value (dtau_17))
(get-value (tau_17_2))
(get-value (t_17))
(get-value (t_18))
(assert (=> (and 
(= dy_17 1.0)
(= y_17 25.0)
(= t_17 5.95)
(= t_18 6.3)
) (= (int-ode_y 17) 18.000000)
))
(assert (=> (and 
(= dtau_17 0.0)
(= tau_17_2 0.0)
(= t_17 5.95)
(= t_18 6.3)
) (= (int-ode_tau 17) 0.350000)
))
(push 1)
(assert (= dy_17 1.0))
(assert (= dtau_17 0.0))
(check-sat)
(get-value (dy_18))
(get-value (y_18))
(get-value (t_18))
(get-value (t_19))
(get-value (inflow))
(get-value (outflow))
(get-value (dtau_18))
(get-value (tau_18_2))
(get-value (t_18))
(get-value (t_19))
(assert (=> (and 
(= dy_18 1.0)
(= y_18 18.0)
(= t_18 6.3)
(= t_19 6.65)
) (= (int-ode_y 18) 11.000000)
))
(assert (=> (and 
(= dtau_18 0.0)
(= tau_18_2 0.35)
(= t_18 6.3)
(= t_19 6.65)
) (= (int-ode_tau 18) 0.700000)
))
(push 1)
(assert (= dy_18 1.0))
(assert (= dtau_18 0.0))
(check-sat)
(get-value (y_0))
(get-value (y_1))
(get-value (y_2))
(get-value (y_3))
(get-value (y_4))
(get-value (y_5))
(get-value (y_6))
(get-value (y_7))
(get-value (y_8))
(get-value (y_9))
(get-value (y_10))
(get-value (y_11))
(get-value (y_12))
(get-value (y_13))
(get-value (y_14))
(get-value (y_15))
(get-value (y_16))
(get-value (y_17))
(get-value (y_18))
(get-value (dy_0))
(get-value (dy_1))
(get-value (dy_2))
(get-value (dy_3))
(get-value (dy_4))
(get-value (dy_5))
(get-value (dy_6))
(get-value (dy_7))
(get-value (dy_8))
(get-value (dy_9))
(get-value (dy_10))
(get-value (dy_11))
(get-value (dy_12))
(get-value (dy_13))
(get-value (dy_14))
(get-value (dy_15))
(get-value (dy_16))
(get-value (dy_17))
(get-value (dy_18))
(get-value (tau_0_2))
(get-value (tau_1_2))
(get-value (tau_2_2))
(get-value (tau_3_2))
(get-value (tau_4_2))
(get-value (tau_5_2))
(get-value (tau_6_2))
(get-value (tau_7_2))
(get-value (tau_8_2))
(get-value (tau_9_2))
(get-value (tau_10_2))
(get-value (tau_11_2))
(get-value (tau_12_2))
(get-value (tau_13_2))
(get-value (tau_14_2))
(get-value (tau_15_2))
(get-value (tau_16_2))
(get-value (tau_17_2))
(get-value (tau_18_2))
(get-value (dtau_0))
(get-value (dtau_1))
(get-value (dtau_2))
(get-value (dtau_3))
(get-value (dtau_4))
(get-value (dtau_5))
(get-value (dtau_6))
(get-value (dtau_7))
(get-value (dtau_8))
(get-value (dtau_9))
(get-value (dtau_10))
(get-value (dtau_11))
(get-value (dtau_12))
(get-value (dtau_13))
(get-value (dtau_14))
(get-value (dtau_15))
(get-value (dtau_16))
(get-value (dtau_17))
(get-value (dtau_18))
(exit)
